(set-logic QF_FP)
(set-option :produce-models true)
(set-info :source |Random FP created by PyMPF|)
(set-info :category random)
(set-info :status sat)
(declare-const x Float32)
(assert (= x ((_ to_fp 8 24) #x00000000)))
(declare-const y Float32)
(assert (= y ((_ to_fp 8 24) #x4A538BC6)))
(declare-const z Float32)
(assert (= z (fp #b1 #b11111111 #b00000000000000000000000)))
(declare-const result Float32)
(assert (= result (fp.fma RTZ x y z)))
(assert (= result ((_ to_fp 8 24) #xFF800000)))
(check-sat)
(exit)
